proyfinal/src/viki/013/experimentInOfficeAgust.take6.output/c0b4a998-3787-4019-8e7e-7f031ab437bf.als.out
Reading from standard input... Use '--help' for help.
============================[ Problem Statistics ]=============================
|                                                                             |
|  Number of variables:         87638                                         |
|  Number of clauses:          161767                                         |
|  Parse time:                   0.03 s                                       |
|                                                                             |
============================[ Search Statistics ]==============================
| Conflicts |          ORIGINAL         |          LEARNT          | Progress |
|           |    Vars  Clauses Literals |    Limit  Clauses Lit/Cl |          |
===============================================================================
|       100 |   65202   115379   287585 |    42305      100     42 | 25.601 % |
|       250 |   65202   115379   287585 |    46536      250     40 | 25.601 % |
|       475 |   65202   115379   287585 |    51189      475     49 | 25.601 % |
|       812 |   60155    99204   247708 |    56308      804     45 | 31.360 % |
|      1318 |   60122    99113   247461 |    61939     1309     43 | 31.397 % |
|      2077 |   60032    98784   246682 |    68133     2065     44 | 31.500 % |
|      3216 |   60016    98680   246449 |    74947     3200     55 | 31.518 % |
|      4924 |   59336    96243   240541 |    82441     4530     55 | 32.294 % |
|      7486 |   59071    95295   238307 |    90685     7075     64 | 32.597 % |
|     11330 |   58783    94107   235510 |    99754    10864     82 | 32.925 % |
|     17096 |   58694    93751   234678 |   109729    16624     82 | 33.027 % |
===============================================================================
restarts              : 70
conflicts             : 20460          (7895 /sec)
decisions             : 87841          (0.00 % random) (33897 /sec)
propagations          : 29086559       (11224381 /sec)
conflict literals     : 1670053        (35.00 % deleted)
Memory used           : 45.84 MB
CPU time              : 2.59137 s

INDETERMINATE
